RLT05
Position Depot: Center
Horizon for Depot: Large
Position of customers: Random
Distribution of the demand: Large
Width of time windows: Tight
Distribution of the service: Large

VEHICLE 
NUMBER 	 CAPACITY 
 6 	 	 855 
 
CUSTOMER
CUST NO. 	 XCOORD.  	 YCOORD. 	 DEMAND 	 READY TIME 	 DUE DATE 	 SERVICE TIME 
 0 	 	 500 	 	 500 	 	 0 	 	 0 	 	 2813 	 	 0 
  1 	 	 396 	 	 803 	 	 47 	 	 1741 	 	 1839 	 	 120 
  2 	 	 5 	 	 837 	 	 55 	 	 546 	 	 658 	 	 107 
  3 	 	 926 	 	 402 	 	 15 	 	 1440 	 	 1585 	 	 170 
  4 	 	 863 	 	 839 	 	 77 	 	 473 	 	 620 	 	 166 
  5 	 	 654 	 	 96 	 	 96 	 	 1215 	 	 1390 	 	 180 
  6 	 	 3 	 	 478 	 	 31 	 	 1556 	 	 1749 	 	 110 
  7 	 	 443 	 	 868 	 	 77 	 	 2342 	 	 2488 	 	 102 
  8 	 	 352 	 	 527 	 	 38 	 	 873 	 	 1024 	 	 163 
  9 	 	 983 	 	 413 	 	 48 	 	 474 	 	 539 	 	 152 
  10 	 	 620 	 	 438 	 	 76 	 	 599 	 	 686 	 	 142 
  11 	 	 195 	 	 144 	 	 63 	 	 1627 	 	 1757 	 	 196 
  12 	 	 790 	 	 6 	 	 47 	 	 1455 	 	 1597 	 	 193 
  13 	 	 82 	 	 802 	 	 97 	 	 1529 	 	 1612 	 	 191 
  14 	 	 660 	 	 971 	 	 5 	 	 548 	 	 610 	 	 193 
  15 	 	 316 	 	 270 	 	 43 	 	 253 	 	 323 	 	 116 
  16 	 	 140 	 	 245 	 	 41 	 	 818 	 	 908 	 	 156 
  17 	 	 203 	 	 418 	 	 48 	 	 474 	 	 603 	 	 200 
  18 	 	 607 	 	 187 	 	 59 	 	 167 	 	 363 	 	 122 
  19 	 	 751 	 	 969 	 	 81 	 	 527 	 	 585 	 	 195 
  20 	 	 144 	 	 424 	 	 85 	 	 1104 	 	 1285 	 	 196 
  21 	 	 217 	 	 58 	 	 10 	 	 2376 	 	 2560 	 	 199 
  22 	 	 525 	 	 553 	 	 91 	 	 1678 	 	 1796 	 	 188 
  23 	 	 481 	 	 572 	 	 57 	 	 1807 	 	 2005 	 	 179 
  24 	 	 926 	 	 83 	 	 73 	 	 1366 	 	 1443 	 	 138 
  25 	 	 234 	 	 798 	 	 6 	 	 933 	 	 1012 	 	 126 
  26 	 	 183 	 	 671 	 	 97 	 	 1532 	 	 1685 	 	 181 
  27 	 	 131 	 	 846 	 	 73 	 	 849 	 	 1042 	 	 182 
  28 	 	 211 	 	 499 	 	 89 	 	 2362 	 	 2451 	 	 187 
  29 	 	 989 	 	 758 	 	 81 	 	 460 	 	 608 	 	 156 
  30 	 	 367 	 	 687 	 	 3 	 	 2378 	 	 2551 	 	 181 
  31 	 	 499 	 	 789 	 	 8 	 	 959 	 	 1081 	 	 122 
  32 	 	 518 	 	 623 	 	 61 	 	 213 	 	 344 	 	 111 
  33 	 	 983 	 	 851 	 	 34 	 	 2066 	 	 2193 	 	 186 
  34 	 	 132 	 	 557 	 	 82 	 	 279 	 	 409 	 	 110 
  35 	 	 150 	 	 512 	 	 90 	 	 486 	 	 580 	 	 185 
  36 	 	 793 	 	 25 	 	 79 	 	 2166 	 	 2216 	 	 107 
  37 	 	 70 	 	 773 	 	 70 	 	 1392 	 	 1564 	 	 106 
  38 	 	 702 	 	 886 	 	 68 	 	 2560 	 	 2746 	 	 109 
  39 	 	 470 	 	 465 	 	 73 	 	 2728 	 	 2782 	 	 135 
  40 	 	 364 	 	 459 	 	 11 	 	 1388 	 	 1454 	 	 122 
  41 	 	 181 	 	 775 	 	 74 	 	 266 	 	 463 	 	 150 
  42 	 	 198 	 	 582 	 	 86 	 	 872 	 	 961 	 	 162 
  43 	 	 125 	 	 356 	 	 68 	 	 2638 	 	 2813 	 	 176 
  44 	 	 105 	 	 736 	 	 80 	 	 2165 	 	 2260 	 	 164 
  45 	 	 935 	 	 316 	 	 13 	 	 1192 	 	 1264 	 	 179 
  46 	 	 119 	 	 585 	 	 42 	 	 2120 	 	 2282 	 	 173 
  47 	 	 757 	 	 594 	 	 37 	 	 1739 	 	 1862 	 	 196 
  48 	 	 518 	 	 449 	 	 69 	 	 1790 	 	 1990 	 	 119 
  49 	 	 311 	 	 596 	 	 35 	 	 255 	 	 378 	 	 104 
  50 	 	 581 	 	 890 	 	 51 	 	 444 	 	 619 	 	 174 
  51 	 	 966 	 	 669 	 	 99 	 	 1265 	 	 1382 	 	 115 
  52 	 	 591 	 	 296 	 	 56 	 	 852 	 	 964 	 	 149 
  53 	 	 553 	 	 598 	 	 10 	 	 1606 	 	 1688 	 	 132 
  54 	 	 43 	 	 698 	 	 33 	 	 895 	 	 1031 	 	 110 
  55 	 	 939 	 	 264 	 	 49 	 	 465 	 	 548 	 	 130 
  56 	 	 994 	 	 497 	 	 42 	 	 1816 	 	 1970 	 	 199 
  57 	 	 83 	 	 522 	 	 75 	 	 1888 	 	 1947 	 	 155 
  58 	 	 203 	 	 403 	 	 73 	 	 2280 	 	 2396 	 	 178 
  59 	 	 632 	 	 775 	 	 17 	 	 472 	 	 618 	 	 107 
  60 	 	 18 	 	 984 	 	 83 	 	 589 	 	 751 	 	 100 
  61 	 	 354 	 	 527 	 	 58 	 	 1288 	 	 1385 	 	 189 
  62 	 	 681 	 	 983 	 	 27 	 	 1753 	 	 1857 	 	 184 
  63 	 	 204 	 	 941 	 	 50 	 	 1277 	 	 1440 	 	 135 
  64 	 	 280 	 	 165 	 	 39 	 	 2708 	 	 2780 	 	 198 
  65 	 	 636 	 	 622 	 	 71 	 	 195 	 	 380 	 	 179 
  66 	 	 491 	 	 584 	 	 76 	 	 2173 	 	 2285 	 	 112 
  67 	 	 511 	 	 122 	 	 58 	 	 1976 	 	 2165 	 	 121 
  68 	 	 115 	 	 713 	 	 83 	 	 1238 	 	 1421 	 	 191 
  69 	 	 800 	 	 386 	 	 75 	 	 826 	 	 1009 	 	 112 
  70 	 	 803 	 	 461 	 	 30 	 	 422 	 	 494 	 	 160 
  71 	 	 257 	 	 590 	 	 66 	 	 1210 	 	 1265 	 	 142 
  72 	 	 618 	 	 824 	 	 88 	 	 1518 	 	 1630 	 	 155 
  73 	 	 156 	 	 513 	 	 73 	 	 1804 	 	 1871 	 	 160 
  74 	 	 905 	 	 262 	 	 53 	 	 2114 	 	 2311 	 	 171 
  75 	 	 69 	 	 721 	 	 16 	 	 1533 	 	 1613 	 	 134 
  76 	 	 387 	 	 872 	 	 5 	 	 281 	 	 470 	 	 144 
  77 	 	 76 	 	 401 	 	 87 	 	 1838 	 	 2010 	 	 195 
  78 	 	 686 	 	 660 	 	 83 	 	 567 	 	 719 	 	 105 
  79 	 	 267 	 	 407 	 	 87 	 	 1531 	 	 1679 	 	 157 
  80 	 	 15 	 	 730 	 	 87 	 	 900 	 	 1087 	 	 116 
  81 	 	 75 	 	 510 	 	 52 	 	 819 	 	 896 	 	 198 
  82 	 	 705 	 	 933 	 	 92 	 	 1841 	 	 1941 	 	 151 
  83 	 	 650 	 	 415 	 	 56 	 	 68 	 	 189 	 	 102 
  84 	 	 794 	 	 44 	 	 63 	 	 1671 	 	 1754 	 	 199 
  85 	 	 609 	 	 180 	 	 96 	 	 684 	 	 863 	 	 148 
  86 	 	 845 	 	 290 	 	 11 	 	 2213 	 	 2273 	 	 152 
  87 	 	 727 	 	 149 	 	 60 	 	 588 	 	 714 	 	 105 
  88 	 	 665 	 	 307 	 	 75 	 	 1169 	 	 1227 	 	 178 
  89 	 	 536 	 	 335 	 	 38 	 	 43 	 	 217 	 	 111 
  90 	 	 959 	 	 167 	 	 95 	 	 2518 	 	 2666 	 	 189 
  91 	 	 645 	 	 504 	 	 34 	 	 1811 	 	 1866 	 	 153 
  92 	 	 35 	 	 302 	 	 99 	 	 417 	 	 555 	 	 125 
  93 	 	 350 	 	 185 	 	 32 	 	 529 	 	 602 	 	 105 
  94 	 	 96 	 	 857 	 	 20 	 	 1193 	 	 1323 	 	 163 
  95 	 	 606 	 	 587 	 	 77 	 	 1913 	 	 1968 	 	 149 
  96 	 	 591 	 	 557 	 	 49 	 	 868 	 	 1052 	 	 118 
  97 	 	 563 	 	 787 	 	 14 	 	 1612 	 	 1803 	 	 149 
  98 	 	 229 	 	 982 	 	 72 	 	 412 	 	 608 	 	 171 
  99 	 	 985 	 	 323 	 	 53 	 	 1495 	 	 1687 	 	 180 
  100 	 	 681 	 	 223 	 	 17 	 	 1742 	 	 1837 	 	 114 
 